examples/inputs/input23.dzn
n = 61;
l = 450;
s = 400;
r = 400;
f = 100;
forbidden = [| 20, 52
	| 23, 49
	| 33, 20
	| 41, 39
	| 23, 47
	| 57, 33
	| 2, 18
	| 56, 18
	| 5, 2
	| 4, 38
	| 48, 53
	| 21, 39
	| 10, 22
	| 57, 36
	| 56, 21
	| 40, 6
	| 59, 38
	| 17, 11
	| 2, 40
	| 38, 7
	| 25, 41
	| 20, 42
	| 17, 60
	| 56, 34
	| 9, 60
	| 34, 3
	| 47, 44
	| 9, 3
	| 44, 36
	| 8, 56
	| 36, 13
	| 59, 40
	| 37, 48
	| 58, 11
	| 43, 3
	| 44, 59
	| 59, 10
	| 1, 13
	| 25, 47
	| 28, 20
	| 54, 26
	| 2, 7
	| 13, 56
	| 39, 24
	| 2, 35
	| 12, 20
	| 40, 12
	| 11, 17
	| 26, 58
	| 41, 38
	| 30, 48
	| 3, 16
	| 31, 17
	| 29, 1
	| 12, 19
	| 55, 54
	| 9, 11
	| 34, 42
	| 59, 6
	| 25, 51
	| 46, 10
	| 3, 39
	| 54, 36
	| 11, 54
	| 50, 29
	| 21, 31
	| 49, 43
	| 42, 18
	| 12, 61
	| 39, 9
	| 17, 40
	| 61, 18
	| 31, 43
	| 11, 61
	| 45, 55
	| 49, 1
	| 34, 29
	| 21, 2
	| 37, 23
	| 49, 38
	| 9, 19
	| 5, 38
	| 59, 11
	| 50, 39
	| 27, 22
	| 22, 30
	| 38, 20
	| 25, 19
	| 22, 32
	| 37, 55
	| 47, 1
	| 18, 8
	| 60, 47
	| 51, 34
	| 18, 9
	| 16, 48
	| 46, 38
	| 40, 27
	| 49, 57
	| 8, 52
	|];