examples/inputs/input23.lp
#const n = 61.
#const l = 450.
#const s = 400.
#const r = 400.
#const f = 100.
val(20, 52, xxx).
val(23, 49, xxx).
val(33, 20, xxx).
val(41, 39, xxx).
val(23, 47, xxx).
val(57, 33, xxx).
val(2, 18, xxx).
val(56, 18, xxx).
val(5, 2, xxx).
val(4, 38, xxx).
val(48, 53, xxx).
val(21, 39, xxx).
val(10, 22, xxx).
val(57, 36, xxx).
val(56, 21, xxx).
val(40, 6, xxx).
val(59, 38, xxx).
val(17, 11, xxx).
val(2, 40, xxx).
val(38, 7, xxx).
val(25, 41, xxx).
val(20, 42, xxx).
val(17, 60, xxx).
val(56, 34, xxx).
val(9, 60, xxx).
val(34, 3, xxx).
val(47, 44, xxx).
val(9, 3, xxx).
val(44, 36, xxx).
val(8, 56, xxx).
val(36, 13, xxx).
val(59, 40, xxx).
val(37, 48, xxx).
val(58, 11, xxx).
val(43, 3, xxx).
val(44, 59, xxx).
val(59, 10, xxx).
val(1, 13, xxx).
val(25, 47, xxx).
val(28, 20, xxx).
val(54, 26, xxx).
val(2, 7, xxx).
val(13, 56, xxx).
val(39, 24, xxx).
val(2, 35, xxx).
val(12, 20, xxx).
val(40, 12, xxx).
val(11, 17, xxx).
val(26, 58, xxx).
val(41, 38, xxx).
val(30, 48, xxx).
val(3, 16, xxx).
val(31, 17, xxx).
val(29, 1, xxx).
val(12, 19, xxx).
val(55, 54, xxx).
val(9, 11, xxx).
val(34, 42, xxx).
val(59, 6, xxx).
val(25, 51, xxx).
val(46, 10, xxx).
val(3, 39, xxx).
val(54, 36, xxx).
val(11, 54, xxx).
val(50, 29, xxx).
val(21, 31, xxx).
val(49, 43, xxx).
val(42, 18, xxx).
val(12, 61, xxx).
val(39, 9, xxx).
val(17, 40, xxx).
val(61, 18, xxx).
val(31, 43, xxx).
val(11, 61, xxx).
val(45, 55, xxx).
val(49, 1, xxx).
val(34, 29, xxx).
val(21, 2, xxx).
val(37, 23, xxx).
val(49, 38, xxx).
val(9, 19, xxx).
val(5, 38, xxx).
val(59, 11, xxx).
val(50, 39, xxx).
val(27, 22, xxx).
val(22, 30, xxx).
val(38, 20, xxx).
val(25, 19, xxx).
val(22, 32, xxx).
val(37, 55, xxx).
val(47, 1, xxx).
val(18, 8, xxx).
val(60, 47, xxx).
val(51, 34, xxx).
val(18, 9, xxx).
val(16, 48, xxx).
val(46, 38, xxx).
val(40, 27, xxx).
val(49, 57, xxx).
val(8, 52, xxx).